% Auto-generated by scripts/generate_dzn.py
% problem_type   = regex
% instance       = regex_67
% source_json    = instances_json/2_high_blowup/regex_67.json
% blowup         = 25.375
% representation = DFA

mode = 0;

var_count = 45;
Q = 406;
S = 3;
q0 = 1;
F = {278, 279, 280, 281, 282, 283, 284, 285, 286, 287, 288, 289, 290, 291, 292, 293, 294, 295, 296, 297, 298, 299, 300, 301, 302, 303, 304, 305, 306, 307, 308, 309, 310, 311, 312, 313, 314, 315, 316, 317, 318, 319, 320, 321, 322, 323, 324, 325, 326, 327, 328, 329, 330, 331, 332, 333, 334, 335, 336, 337, 338, 339, 340, 341, 342, 343, 344, 345, 346, 347, 348, 349, 350, 351, 352, 353, 354, 355, 356, 357, 358, 359, 360, 361, 362, 363, 364, 365, 366, 367, 368, 369, 370, 371, 372, 373, 374, 375, 376, 377, 378, 379, 380, 381, 382, 383, 384, 385, 386, 387, 388, 389, 390, 391, 392, 393, 394, 395, 396, 397, 398, 399, 400, 401, 402, 403, 404, 405, 406};
d_dfa = array2d(1..406, 1..3, [
  1, 2, 1,
  3, 2, 1,
  4, 2, 1,
  5, 6, 5,
  7, 8, 7,
  9, 8, 7,
  10, 11, 10,
  12, 11, 10,
  13, 11, 10,
  14, 15, 14,
  16, 15, 14,
  17, 15, 14,
  18, 19, 18,
  20, 21, 20,
  22, 21, 20,
  23, 21, 20,
  24, 25, 24,
  26, 27, 26,
  28, 27, 26,
  29, 30, 29,
  31, 30, 29,
  32, 30, 29,
  33, 34, 33,
  35, 36, 35,
  37, 36, 35,
  38, 39, 38,
  40, 39, 38,
  41, 39, 38,
  42, 43, 42,
  44, 43, 42,
  45, 43, 42,
  46, 47, 46,
  48, 49, 48,
  50, 49, 48,
  51, 52, 51,
  53, 52, 51,
  54, 52, 51,
  55, 56, 55,
  57, 56, 55,
  58, 56, 55,
  59, 60, 59,
  61, 62, 61,
  63, 62, 61,
  64, 62, 61,
  65, 66, 65,
  67, 68, 67,
  69, 68, 67,
  70, 71, 70,
  72, 71, 70,
  73, 71, 70,
  74, 75, 74,
  76, 75, 74,
  77, 75, 74,
  78, 79, 78,
  80, 81, 80,
  82, 81, 80,
  83, 81, 80,
  84, 85, 84,
  86, 87, 86,
  88, 87, 86,
  89, 90, 89,
  91, 90, 89,
  92, 90, 89,
  93, 94, 93,
  95, 96, 95,
  97, 96, 95,
  98, 99, 98,
  100, 99, 98,
  101, 99, 98,
  102, 103, 102,
  104, 103, 102,
  105, 103, 102,
  106, 107, 106,
  108, 109, 108,
  110, 109, 108,
  111, 109, 108,
  112, 113, 112,
  114, 115, 114,
  116, 115, 114,
  117, 118, 117,
  119, 118, 117,
  120, 118, 117,
  121, 122, 121,
  123, 124, 123,
  125, 124, 123,
  126, 127, 126,
  128, 127, 126,
  129, 127, 126,
  130, 131, 130,
  132, 131, 130,
  133, 131, 130,
  134, 135, 134,
  136, 137, 136,
  138, 137, 136,
  139, 140, 139,
  141, 140, 139,
  142, 140, 139,
  143, 144, 143,
  145, 144, 143,
  146, 144, 143,
  147, 148, 147,
  149, 150, 149,
  151, 150, 149,
  152, 150, 149,
  153, 154, 153,
  155, 156, 155,
  157, 156, 155,
  158, 159, 158,
  160, 159, 158,
  161, 159, 158,
  162, 163, 162,
  164, 165, 164,
  166, 165, 164,
  167, 168, 167,
  169, 168, 167,
  170, 168, 167,
  171, 172, 171,
  173, 172, 171,
  174, 172, 171,
  175, 176, 175,
  177, 178, 177,
  179, 178, 177,
  180, 181, 180,
  182, 181, 180,
  183, 181, 180,
  184, 185, 184,
  186, 185, 184,
  187, 185, 184,
  188, 189, 188,
  190, 191, 190,
  192, 191, 190,
  193, 191, 190,
  194, 195, 194,
  196, 197, 196,
  198, 197, 196,
  199, 200, 199,
  201, 200, 199,
  202, 200, 199,
  203, 204, 203,
  205, 204, 203,
  206, 204, 203,
  207, 208, 207,
  209, 210, 209,
  211, 210, 209,
  212, 210, 209,
  213, 214, 213,
  215, 216, 215,
  217, 216, 215,
  218, 219, 218,
  220, 219, 218,
  221, 219, 218,
  222, 223, 222,
  224, 225, 224,
  226, 225, 224,
  227, 228, 227,
  229, 228, 227,
  230, 228, 227,
  231, 232, 231,
  233, 232, 231,
  234, 232, 231,
  235, 236, 235,
  237, 238, 237,
  239, 238, 237,
  240, 241, 240,
  242, 241, 240,
  243, 241, 240,
  244, 245, 244,
  246, 245, 244,
  247, 245, 244,
  248, 249, 248,
  250, 251, 250,
  252, 251, 250,
  253, 251, 250,
  254, 255, 254,
  256, 257, 256,
  258, 257, 256,
  259, 260, 259,
  261, 260, 259,
  262, 260, 259,
  263, 264, 263,
  265, 264, 263,
  266, 264, 263,
  267, 268, 267,
  269, 270, 269,
  271, 270, 269,
  272, 270, 269,
  273, 274, 273,
  275, 276, 275,
  277, 276, 275,
  278, 279, 278,
  280, 279, 278,
  281, 279, 278,
  282, 283, 282,
  284, 285, 284,
  286, 285, 284,
  287, 288, 287,
  289, 288, 287,
  290, 288, 287,
  291, 292, 291,
  293, 292, 291,
  294, 292, 291,
  295, 296, 295,
  297, 298, 297,
  299, 298, 297,
  300, 298, 297,
  301, 302, 301,
  303, 304, 303,
  305, 304, 303,
  306, 307, 306,
  308, 307, 306,
  309, 307, 306,
  310, 311, 310,
  312, 313, 312,
  314, 313, 312,
  315, 316, 315,
  317, 316, 315,
  318, 316, 315,
  319, 320, 319,
  321, 320, 319,
  322, 320, 319,
  323, 324, 323,
  325, 326, 325,
  327, 326, 325,
  328, 329, 328,
  330, 329, 328,
  331, 329, 328,
  332, 333, 332,
  334, 333, 332,
  335, 333, 332,
  336, 337, 336,
  338, 339, 338,
  340, 339, 338,
  341, 339, 338,
  342, 343, 342,
  344, 345, 344,
  346, 345, 344,
  347, 348, 347,
  349, 348, 347,
  350, 348, 347,
  351, 352, 351,
  353, 352, 351,
  354, 352, 351,
  355, 356, 355,
  357, 358, 357,
  359, 358, 357,
  360, 358, 357,
  361, 362, 361,
  363, 364, 363,
  365, 364, 363,
  366, 367, 366,
  368, 367, 366,
  369, 367, 366,
  370, 371, 370,
  372, 373, 372,
  374, 373, 372,
  375, 376, 375,
  377, 376, 375,
  378, 376, 375,
  379, 380, 379,
  381, 380, 379,
  382, 380, 379,
  383, 384, 383,
  385, 386, 385,
  387, 386, 385,
  388, 386, 385,
  389, 390, 389,
  391, 392, 391,
  393, 392, 391,
  394, 395, 394,
  396, 395, 394,
  397, 395, 394,
  398, 399, 398,
  400, 401, 400,
  402, 401, 400,
  403, 404, 403,
  405, 404, 403,
  406, 404, 403,
  1, 2, 1,
  3, 2, 1,
  4, 2, 1,
  5, 6, 5,
  7, 8, 7,
  9, 8, 7,
  10, 11, 10,
  12, 11, 10,
  13, 11, 10,
  14, 15, 14,
  16, 15, 14,
  17, 15, 14,
  18, 19, 18,
  20, 21, 20,
  22, 21, 20,
  23, 21, 20,
  24, 25, 24,
  26, 27, 26,
  28, 27, 26,
  29, 30, 29,
  31, 30, 29,
  32, 30, 29,
  33, 34, 33,
  35, 36, 35,
  37, 36, 35,
  38, 39, 38,
  40, 39, 38,
  41, 39, 38,
  42, 43, 42,
  44, 43, 42,
  45, 43, 42,
  46, 47, 46,
  48, 49, 48,
  50, 49, 48,
  51, 52, 51,
  53, 52, 51,
  54, 52, 51,
  55, 56, 55,
  57, 56, 55,
  58, 56, 55,
  59, 60, 59,
  61, 62, 61,
  63, 62, 61,
  64, 62, 61,
  65, 66, 65,
  67, 68, 67,
  69, 68, 67,
  70, 71, 70,
  72, 71, 70,
  73, 71, 70,
  74, 75, 74,
  76, 75, 74,
  77, 75, 74,
  78, 79, 78,
  80, 81, 80,
  82, 81, 80,
  83, 81, 80,
  84, 85, 84,
  86, 87, 86,
  88, 87, 86,
  89, 90, 89,
  91, 90, 89,
  92, 90, 89,
  93, 94, 93,
  95, 96, 95,
  97, 96, 95,
  98, 99, 98,
  100, 99, 98,
  101, 99, 98,
  102, 103, 102,
  104, 103, 102,
  105, 103, 102,
  106, 107, 106,
  108, 109, 108,
  110, 109, 108,
  111, 109, 108,
  112, 113, 112,
  114, 115, 114,
  116, 115, 114,
  117, 118, 117,
  119, 118, 117,
  120, 118, 117,
  121, 122, 121,
  123, 124, 123,
  125, 124, 123,
  126, 127, 126,
  128, 127, 126,
  129, 127, 126,
  130, 131, 130,
  132, 131, 130,
  133, 131, 130,
  134, 135, 134,
  136, 137, 136,
  138, 137, 136,
  139, 140, 139,
  141, 140, 139,
  142, 140, 139,
  143, 144, 143,
  145, 144, 143,
  146, 144, 143,
  147, 148, 147,
  149, 150, 149,
  151, 150, 149,
  152, 150, 149,
  153, 154, 153,
  155, 156, 155,
  157, 156, 155,
  158, 159, 158,
  160, 159, 158,
  161, 159, 158,
  162, 163, 162,
  164, 165, 164,
  166, 165, 164,
  167, 168, 167,
  169, 168, 167,
  170, 168, 167,
  171, 172, 171,
  173, 172, 171,
  174, 172, 171,
  175, 176, 175,
  177, 178, 177,
  179, 178, 177,
  180, 181, 180,
  182, 181, 180,
  183, 181, 180,
  184, 185, 184,
  186, 185, 184,
  187, 185, 184,
  188, 189, 188
]);
d_nfa = array2d(1..406, 1..3, [
  {}, {}, {},
  {}, {}, {},
  {}, {}, {},
  {}, {}, {},
  {}, {}, {},
  {}, {}, {},
  {}, {}, {},
  {}, {}, {},
  {}, {}, {},
  {}, {}, {},
  {}, {}, {},
  {}, {}, {},
  {}, {}, {},
  {}, {}, {},
  {}, {}, {},
  {}, {}, {},
  {}, {}, {},
  {}, {}, {},
  {}, {}, {},
  {}, {}, {},
  {}, {}, {},
  {}, {}, {},
  {}, {}, {},
  {}, {}, {},
  {}, {}, {},
  {}, {}, {},
  {}, {}, {},
  {}, {}, {},
  {}, {}, {},
  {}, {}, {},
  {}, {}, {},
  {}, {}, {},
  {}, {}, {},
  {}, {}, {},
  {}, {}, {},
  {}, {}, {},
  {}, {}, {},
  {}, {}, {},
  {}, {}, {},
  {}, {}, {},
  {}, {}, {},
  {}, {}, {},
  {}, {}, {},
  {}, {}, {},
  {}, {}, {},
  {}, {}, {},
  {}, {}, {},
  {}, {}, {},
  {}, {}, {},
  {}, {}, {},
  {}, {}, {},
  {}, {}, {},
  {}, {}, {},
  {}, {}, {},
  {}, {}, {},
  {}, {}, {},
  {}, {}, {},
  {}, {}, {},
  {}, {}, {},
  {}, {}, {},
  {}, {}, {},
  {}, {}, {},
  {}, {}, {},
  {}, {}, {},
  {}, {}, {},
  {}, {}, {},
  {}, {}, {},
  {}, {}, {},
  {}, {}, {},
  {}, {}, {},
  {}, {}, {},
  {}, {}, {},
  {}, {}, {},
  {}, {}, {},
  {}, {}, {},
  {}, {}, {},
  {}, {}, {},
  {}, {}, {},
  {}, {}, {},
  {}, {}, {},
  {}, {}, {},
  {}, {}, {},
  {}, {}, {},
  {}, {}, {},
  {}, {}, {},
  {}, {}, {},
  {}, {}, {},
  {}, {}, {},
  {}, {}, {},
  {}, {}, {},
  {}, {}, {},
  {}, {}, {},
  {}, {}, {},
  {}, {}, {},
  {}, {}, {},
  {}, {}, {},
  {}, {}, {},
  {}, {}, {},
  {}, {}, {},
  {}, {}, {},
  {}, {}, {},
  {}, {}, {},
  {}, {}, {},
  {}, {}, {},
  {}, {}, {},
  {}, {}, {},
  {}, {}, {},
  {}, {}, {},
  {}, {}, {},
  {}, {}, {},
  {}, {}, {},
  {}, {}, {},
  {}, {}, {},
  {}, {}, {},
  {}, {}, {},
  {}, {}, {},
  {}, {}, {},
  {}, {}, {},
  {}, {}, {},
  {}, {}, {},
  {}, {}, {},
  {}, {}, {},
  {}, {}, {},
  {}, {}, {},
  {}, {}, {},
  {}, {}, {},
  {}, {}, {},
  {}, {}, {},
  {}, {}, {},
  {}, {}, {},
  {}, {}, {},
  {}, {}, {},
  {}, {}, {},
  {}, {}, {},
  {}, {}, {},
  {}, {}, {},
  {}, {}, {},
  {}, {}, {},
  {}, {}, {},
  {}, {}, {},
  {}, {}, {},
  {}, {}, {},
  {}, {}, {},
  {}, {}, {},
  {}, {}, {},
  {}, {}, {},
  {}, {}, {},
  {}, {}, {},
  {}, {}, {},
  {}, {}, {},
  {}, {}, {},
  {}, {}, {},
  {}, {}, {},
  {}, {}, {},
  {}, {}, {},
  {}, {}, {},
  {}, {}, {},
  {}, {}, {},
  {}, {}, {},
  {}, {}, {},
  {}, {}, {},
  {}, {}, {},
  {}, {}, {},
  {}, {}, {},
  {}, {}, {},
  {}, {}, {},
  {}, {}, {},
  {}, {}, {},
  {}, {}, {},
  {}, {}, {},
  {}, {}, {},
  {}, {}, {},
  {}, {}, {},
  {}, {}, {},
  {}, {}, {},
  {}, {}, {},
  {}, {}, {},
  {}, {}, {},
  {}, {}, {},
  {}, {}, {},
  {}, {}, {},
  {}, {}, {},
  {}, {}, {},
  {}, {}, {},
  {}, {}, {},
  {}, {}, {},
  {}, {}, {},
  {}, {}, {},
  {}, {}, {},
  {}, {}, {},
  {}, {}, {},
  {}, {}, {},
  {}, {}, {},
  {}, {}, {},
  {}, {}, {},
  {}, {}, {},
  {}, {}, {},
  {}, {}, {},
  {}, {}, {},
  {}, {}, {},
  {}, {}, {},
  {}, {}, {},
  {}, {}, {},
  {}, {}, {},
  {}, {}, {},
  {}, {}, {},
  {}, {}, {},
  {}, {}, {},
  {}, {}, {},
  {}, {}, {},
  {}, {}, {},
  {}, {}, {},
  {}, {}, {},
  {}, {}, {},
  {}, {}, {},
  {}, {}, {},
  {}, {}, {},
  {}, {}, {},
  {}, {}, {},
  {}, {}, {},
  {}, {}, {},
  {}, {}, {},
  {}, {}, {},
  {}, {}, {},
  {}, {}, {},
  {}, {}, {},
  {}, {}, {},
  {}, {}, {},
  {}, {}, {},
  {}, {}, {},
  {}, {}, {},
  {}, {}, {},
  {}, {}, {},
  {}, {}, {},
  {}, {}, {},
  {}, {}, {},
  {}, {}, {},
  {}, {}, {},
  {}, {}, {},
  {}, {}, {},
  {}, {}, {},
  {}, {}, {},
  {}, {}, {},
  {}, {}, {},
  {}, {}, {},
  {}, {}, {},
  {}, {}, {},
  {}, {}, {},
  {}, {}, {},
  {}, {}, {},
  {}, {}, {},
  {}, {}, {},
  {}, {}, {},
  {}, {}, {},
  {}, {}, {},
  {}, {}, {},
  {}, {}, {},
  {}, {}, {},
  {}, {}, {},
  {}, {}, {},
  {}, {}, {},
  {}, {}, {},
  {}, {}, {},
  {}, {}, {},
  {}, {}, {},
  {}, {}, {},
  {}, {}, {},
  {}, {}, {},
  {}, {}, {},
  {}, {}, {},
  {}, {}, {},
  {}, {}, {},
  {}, {}, {},
  {}, {}, {},
  {}, {}, {},
  {}, {}, {},
  {}, {}, {},
  {}, {}, {},
  {}, {}, {},
  {}, {}, {},
  {}, {}, {},
  {}, {}, {},
  {}, {}, {},
  {}, {}, {},
  {}, {}, {},
  {}, {}, {},
  {}, {}, {},
  {}, {}, {},
  {}, {}, {},
  {}, {}, {},
  {}, {}, {},
  {}, {}, {},
  {}, {}, {},
  {}, {}, {},
  {}, {}, {},
  {}, {}, {},
  {}, {}, {},
  {}, {}, {},
  {}, {}, {},
  {}, {}, {},
  {}, {}, {},
  {}, {}, {},
  {}, {}, {},
  {}, {}, {},
  {}, {}, {},
  {}, {}, {},
  {}, {}, {},
  {}, {}, {},
  {}, {}, {},
  {}, {}, {},
  {}, {}, {},
  {}, {}, {},
  {}, {}, {},
  {}, {}, {},
  {}, {}, {},
  {}, {}, {},
  {}, {}, {},
  {}, {}, {},
  {}, {}, {},
  {}, {}, {},
  {}, {}, {},
  {}, {}, {},
  {}, {}, {},
  {}, {}, {},
  {}, {}, {},
  {}, {}, {},
  {}, {}, {},
  {}, {}, {},
  {}, {}, {},
  {}, {}, {},
  {}, {}, {},
  {}, {}, {},
  {}, {}, {},
  {}, {}, {},
  {}, {}, {},
  {}, {}, {},
  {}, {}, {},
  {}, {}, {},
  {}, {}, {},
  {}, {}, {},
  {}, {}, {},
  {}, {}, {},
  {}, {}, {},
  {}, {}, {},
  {}, {}, {},
  {}, {}, {},
  {}, {}, {},
  {}, {}, {},
  {}, {}, {},
  {}, {}, {},
  {}, {}, {},
  {}, {}, {},
  {}, {}, {},
  {}, {}, {},
  {}, {}, {},
  {}, {}, {},
  {}, {}, {},
  {}, {}, {},
  {}, {}, {},
  {}, {}, {},
  {}, {}, {},
  {}, {}, {},
  {}, {}, {},
  {}, {}, {},
  {}, {}, {},
  {}, {}, {},
  {}, {}, {},
  {}, {}, {},
  {}, {}, {},
  {}, {}, {},
  {}, {}, {},
  {}, {}, {},
  {}, {}, {},
  {}, {}, {},
  {}, {}, {},
  {}, {}, {},
  {}, {}, {},
  {}, {}, {},
  {}, {}, {},
  {}, {}, {},
  {}, {}, {},
  {}, {}, {},
  {}, {}, {},
  {}, {}, {},
  {}, {}, {},
  {}, {}, {},
  {}, {}, {},
  {}, {}, {},
  {}, {}, {},
  {}, {}, {},
  {}, {}, {},
  {}, {}, {},
  {}, {}, {},
  {}, {}, {},
  {}, {}, {},
  {}, {}, {},
  {}, {}, {},
  {}, {}, {},
  {}, {}, {},
  {}, {}, {},
  {}, {}, {},
  {}, {}, {},
  {}, {}, {},
  {}, {}, {},
  {}, {}, {},
  {}, {}, {}
]);
